(set-logic QF_UF)
(declare-fun car () Bool)
(declare-fun circuit () Bool)
(declare-fun clk () Bool)
(declare-fun prt () Bool)
(assert (not (and prt car (not clk))))
(assert (not (not prt)))
(assert (not (not car)))
(assert (not (not (not clk))))
(check-sat)
(exit)
